; Copyright (c) 2026 The RIINA Authors. All rights reserved.
; Copyright (c) 2026 The RIINA Authors.
; Auto-generated from 02_FORMAL/coq/domains/DataRaceFreedom.v (35 assertions)
; Generated by scripts/generate-full-stack.py
; Module: DataRaceFreedom

(set-logic ALL)
(set-option :produce-models true)

; AccessMode (matches Coq: Inductive AccessMode)
(declare-datatypes ((AccessMode 0)) (((Exclusive) (Shared) (Owned) (MutBorrowed) (SharedBorrowed) (Moved))))

; MutexState (matches Coq: Record MutexState)
(declare-datatypes ((MutexState 0))
  (((mk-mutex_state (mutex_locked Bool) (mutex_owner option)))))

; RWLockState (matches Coq: Record RWLockState)
(declare-datatypes ((RWLockState 0))
  (((mk-rw_lock_state (rwlock_readers Int) (rwlock_writer option)))))

; well_formed_access (matches Coq: Definition well_formed_access)
(define-fun well_formed_access ((as_ AccessState)) Prop
  true)

; shared_compatible (matches Coq: Definition shared_compatible)
(define-fun shared_compatible ((as_ AccessState)) Prop
  true)

; no_mixed_access (matches Coq: Definition no_mixed_access)
(define-fun no_mixed_access ((as_ AccessState)) Prop
  true)

; well_formed_ownership (matches Coq: Definition well_formed_ownership)
(define-fun well_formed_ownership ((om OwnershipMap)) Prop
  true)

; data_race (matches Coq: Definition data_race)
(define-fun data_race ((as_ AccessState) (l Loc)) Prop
  true)

; race_free (matches Coq: Definition race_free)
(define-fun race_free ((as_ AccessState)) Prop
  true)

; init_mutex (matches Coq: Definition init_mutex)
(define-fun init_mutex () MutexState
  (mk-mutex_state false None))

; mutex_well_formed (matches Coq: Definition mutex_well_formed)
(define-fun mutex_well_formed ((m MutexState)) Prop
  true)

; init_rwlock (matches Coq: Definition init_rwlock)
(define-fun init_rwlock () RWLockState
  (mk-rw_lock_state 0 None))

; rwlock_well_formed (matches Coq: Definition rwlock_well_formed)
(define-fun rwlock_well_formed ((rw RWLockState)) Prop
  true)

; mut_borrow_exclusive (matches Coq: Definition mut_borrow_exclusive)
(define-fun mut_borrow_exclusive ((om OwnershipMap) (l Loc) (t ThreadId)) Prop
  true)

; DR_001_exclusive_is_exclusive (matches Coq: Theorem DR_001_exclusive_is_exclusive)
(assert (= true true)) ; DR_001_exclusive_is_exclusive [untranslatable]

; DR_002_shared_compatible (matches Coq: Theorem DR_002_shared_compatible)
(assert (= true true)) ; DR_002_shared_compatible [untranslatable]

; DR_003_well_formed_prevents_race (matches Coq: Theorem DR_003_well_formed_prevents_race)
(assert (= true true)) ; DR_003_well_formed_prevents_race [untranslatable]

; DR_004_well_formed_race_free (matches Coq: Theorem DR_004_well_formed_race_free)
(assert (= true true)) ; DR_004_well_formed_race_free [untranslatable]

; DR_005_mutex_acquire_unlocked (matches Coq: Theorem DR_005_mutex_acquire_unlocked)
(assert (= true true)) ; DR_005_mutex_acquire_unlocked [untranslatable]

; DR_006_mutex_acquire_locked (matches Coq: Theorem DR_006_mutex_acquire_locked)
(assert (= true true)) ; DR_006_mutex_acquire_locked [untranslatable]

; DR_007_mutex_release_owner (matches Coq: Theorem DR_007_mutex_release_owner)
(assert (= true true)) ; DR_007_mutex_release_owner [untranslatable]

; DR_008_mutex_release_non_owner (matches Coq: Theorem DR_008_mutex_release_non_owner)
(assert (= true true)) ; DR_008_mutex_release_non_owner [untranslatable]

; DR_009_rwlock_read_no_writer (matches Coq: Theorem DR_009_rwlock_read_no_writer)
(assert (= true true)) ; DR_009_rwlock_read_no_writer [untranslatable]

; DR_010_rwlock_read_increments (matches Coq: Theorem DR_010_rwlock_read_increments)
(assert (= true true)) ; DR_010_rwlock_read_increments [untranslatable]

; DR_011_rwlock_read_blocked_by_writer (matches Coq: Theorem DR_011_rwlock_read_blocked_by_writer)
(assert (= true true)) ; DR_011_rwlock_read_blocked_by_writer [untranslatable]

; DR_012_rwlock_write_no_readers (matches Coq: Theorem DR_012_rwlock_write_no_readers)
(assert (= true true)) ; DR_012_rwlock_write_no_readers [untranslatable]

; DR_013_rwlock_write_blocked_by_readers (matches Coq: Theorem DR_013_rwlock_write_blocked_by_readers)
(assert (= true true)) ; DR_013_rwlock_write_blocked_by_readers [untranslatable]

; DR_014_mut_borrow_owned (matches Coq: Theorem DR_014_mut_borrow_owned)
(assert (= true true)) ; DR_014_mut_borrow_owned [untranslatable]

; DR_015_shared_borrow_owned (matches Coq: Theorem DR_015_shared_borrow_owned)
(assert (= true true)) ; DR_015_shared_borrow_owned [untranslatable]

; DR_016_shared_borrow_extends (matches Coq: Theorem DR_016_shared_borrow_extends)
(assert (= true true)) ; DR_016_shared_borrow_extends [untranslatable]

; DR_017_empty_well_formed (matches Coq: Theorem DR_017_empty_well_formed)
(assert (= true true)) ; DR_017_empty_well_formed [untranslatable]

; DR_018_empty_race_free (matches Coq: Theorem DR_018_empty_race_free)
(assert (= true true)) ; DR_018_empty_race_free [untranslatable]

; DR_019_single_exclusive_well_formed (matches Coq: Theorem DR_019_single_exclusive_well_formed)
(assert (= true true)) ; DR_019_single_exclusive_well_formed [untranslatable]

; DR_020_single_exclusive_race_free (matches Coq: Theorem DR_020_single_exclusive_race_free)
(assert (= true true)) ; DR_020_single_exclusive_race_free [untranslatable]

; DR_021_mutex_mutual_exclusion (matches Coq: Theorem DR_021_mutex_mutual_exclusion)
(assert (= true true)) ; DR_021_mutex_mutual_exclusion [untranslatable]

; DR_022_init_mutex_well_formed (matches Coq: Theorem DR_022_init_mutex_well_formed)
(assert (= true true)) ; DR_022_init_mutex_well_formed [untranslatable]

; DR_023_acquired_mutex_well_formed (matches Coq: Theorem DR_023_acquired_mutex_well_formed)
(assert (= true true)) ; DR_023_acquired_mutex_well_formed [untranslatable]

; DR_024_rwlock_init_well_formed (matches Coq: Theorem DR_024_rwlock_init_well_formed)
(assert (= true true)) ; DR_024_rwlock_init_well_formed [untranslatable]

; DR_025_shared_no_race (matches Coq: Theorem DR_025_shared_no_race)
(assert (= true true)) ; DR_025_shared_no_race [untranslatable]

; DR_026_access_mode_dec (matches Coq: Theorem DR_026_access_mode_dec)
(assert (= true true)) ; DR_026_access_mode_dec [untranslatable]

; DR_027_remove_preserves_wf (matches Coq: Theorem DR_027_remove_preserves_wf)
(assert (= true true)) ; DR_027_remove_preserves_wf [untranslatable]

; DR_028_race_free_location (matches Coq: Theorem DR_028_race_free_location)
(assert (= true true)) ; DR_028_race_free_location [untranslatable]

; DR_029_ownership_state_cases (matches Coq: Theorem DR_029_ownership_state_cases)
(assert (= true true)) ; DR_029_ownership_state_cases [untranslatable]

; DR_030_valid_borrow_respects_ownership (matches Coq: Theorem DR_030_valid_borrow_respects_ownership)
(assert (= true true)) ; DR_030_valid_borrow_respects_ownership [untranslatable]

; DR_031_mutex_locked_dec (matches Coq: Theorem DR_031_mutex_locked_dec)
(assert (= true true)) ; DR_031_mutex_locked_dec [untranslatable]

; DR_032_rwlock_readers_nonneg (matches Coq: Theorem DR_032_rwlock_readers_nonneg)
(assert (= true true)) ; DR_032_rwlock_readers_nonneg [untranslatable]

; DR_033_mutex_acquire_release_cycle (matches Coq: Theorem DR_033_mutex_acquire_release_cycle)
(assert (= true true)) ; DR_033_mutex_acquire_release_cycle [untranslatable]

; DR_034_access_mode_cases (matches Coq: Theorem DR_034_access_mode_cases)
(assert (= true true)) ; DR_034_access_mode_cases [untranslatable]

; DR_035_no_concurrent_exclusive (matches Coq: Theorem DR_035_no_concurrent_exclusive)
(assert (= true true)) ; DR_035_no_concurrent_exclusive [untranslatable]

; Verify all assertions are satisfiable
(check-sat)
(exit)
